param n := 25;
param s := 22;
param t := 17;
set A :=
1 2 
1 5 
1 11 
1 18 
1 19 
2 19 
2 24 
3 13 
3 14 
3 15 
3 16 
4 14 
5 2 
5 13 
5 15 
6 4 
6 9 
6 10 
6 18 
7 9 
7 16 
7 18 
7 21 
7 24 
8 6 
9 6 
9 17 
10 6 
10 8 
10 14 
10 15 
10 18 
11 13 
11 20 
11 25 
12 5 
12 21 
12 24 
13 3 
13 8 
13 16 
14 5 
14 17 
14 23 
15 4 
15 5 
15 7 
15 19 
16 9 
16 17 
18 1 
18 21 
18 23 
19 3 
19 11 
19 21 
19 25 
20 4 
20 5 
20 19 
21 2 
21 18 
21 19 
22 1 
22 2 
22 13 
22 18 
23 3 
23 12 
23 15 
23 20 
23 21 
24 1 
24 11 
24 15 
24 21 
25 3 
25 4 
25 8 
25 10 
25 14 
;
param: capacity:=
1 2 4.0 
1 5 9.4 
1 11 8.9 
1 18 5.6 
1 19 4.3 
2 19 4.4 
2 24 9.5 
3 13 6.4 
3 14 7.0 
3 15 6.7 
3 16 6.5 
4 14 5.0 
5 2 8.5 
5 13 4.3 
5 15 5.1 
6 4 6.6 
6 9 5.2 
6 10 8.7 
6 18 4.3 
7 9 6.3 
7 16 7.3 
7 18 9.3 
7 21 3.4 
7 24 5.3 
8 6 7.0 
9 6 9.1 
9 17 9.0 
10 6 9.2 
10 8 3.5 
10 14 7.5 
10 15 3.7 
10 18 9.2 
11 13 5.0 
11 20 9.9 
11 25 9.9 
12 5 5.2 
12 21 5.2 
12 24 6.7 
13 3 5.3 
13 8 8.5 
13 16 7.4 
14 5 3.9 
14 17 9.3 
14 23 9.4 
15 4 3.1 
15 5 8.7 
15 7 5.6 
15 19 4.3 
16 9 4.1 
16 17 8.3 
18 1 5.5 
18 21 6.4 
18 23 7.8 
19 3 7.6 
19 11 7.9 
19 21 7.1 
19 25 7.8 
20 4 3.3 
20 5 3.3 
20 19 7.0 
21 2 9.3 
21 18 6.6 
21 19 4.0 
22 1 5.4 
22 2 8.3 
22 13 5.2 
22 18 7.2 
23 3 8.8 
23 12 7.5 
23 15 4.4 
23 20 3.7 
23 21 6.1 
24 1 4.3 
24 11 3.7 
24 15 7.3 
24 21 7.6 
25 3 9.7 
25 4 4.7 
25 8 4.3 
25 10 8.7 
25 14 3.1 
;
param: cost:=
1 2 6.5 
1 5 7.2 
1 11 8.4 
1 18 9.8 
1 19 7.5 
2 19 4.2 
2 24 9.3 
3 13 2.6 
3 14 7.0 
3 15 2.8 
3 16 2.4 
4 14 1.1 
5 2 5.5 
5 13 9.7 
5 15 5.7 
6 4 1.5 
6 9 4.9 
6 10 7.7 
6 18 3.3 
7 9 4.3 
7 16 5.5 
7 18 5.5 
7 21 9.5 
7 24 8.8 
8 6 5.8 
9 6 6.3 
9 17 5.7 
10 6 1.6 
10 8 7.3 
10 14 5.3 
10 15 10.0 
10 18 1.2 
11 13 9.1 
11 20 6.7 
11 25 2.0 
12 5 1.7 
12 21 9.7 
12 24 7.0 
13 3 3.7 
13 8 2.4 
13 16 2.6 
14 5 6.1 
14 17 4.2 
14 23 4.4 
15 4 4.6 
15 5 7.9 
15 7 2.0 
15 19 6.3 
16 9 8.6 
16 17 8.9 
18 1 3.0 
18 21 5.5 
18 23 9.3 
19 3 9.7 
19 11 3.2 
19 21 5.6 
19 25 8.2 
20 4 2.5 
20 5 2.3 
20 19 3.4 
21 2 9.7 
21 18 2.8 
21 19 5.2 
22 1 4.8 
22 2 2.5 
22 13 3.3 
22 18 1.8 
23 3 2.5 
23 12 7.7 
23 15 9.3 
23 20 1.0 
23 21 9.9 
24 1 2.0 
24 11 3.1 
24 15 7.3 
24 21 6.8 
25 3 3.5 
25 4 6.3 
25 8 9.2 
25 10 8.2 
25 14 3.5 
;